
Gurobi 12.0.2 (win64) logging started Mon Nov  3 17:56:30 2025

Set parameter LogFile to value "resultados DATA_1_n10m10b2d1\instancia_7_log.txt"
Set parameter TimeLimit to value 1800
Gurobi Optimizer version 12.0.2 build v12.0.2rc0 (win64 - Windows 10.0 (19045.2))

CPU model: Intel(R) Core(TM) i5-6300U CPU @ 2.40GHz, instruction set [SSE2|AVX|AVX2]
Thread count: 2 physical cores, 4 logical processors, using up to 4 threads

Non-default parameters:
TimeLimit  1800

Optimize a model with 810 rows, 4888 columns and 87308 nonzeros
Model fingerprint: 0x7218651b
Variable types: 0 continuous, 4888 integer (4888 binary)
Coefficient statistics:
  Matrix range     [1e+00, 1e+00]
  Objective range  [3e-03, 5e-02]
  Bounds range     [1e+00, 1e+00]
  RHS range        [1e+00, 8e+01]
Found heuristic solution: objective 0.9700000
Presolve removed 0 rows and 698 columns
Presolve time: 0.29s
Presolved: 810 rows, 4190 columns, 73182 nonzeros
Found heuristic solution: objective 0.9220000
Variable types: 0 continuous, 4190 integer (4190 binary)

Root simplex log...

Iteration    Objective       Primal Inf.    Dual Inf.      Time
   11260    1.0027513e+00   1.111398e+03   0.000000e+00      5s
   14634    1.0000000e+00   0.000000e+00   0.000000e+00      7s

Root relaxation: objective 1.000000e+00, 14634 iterations, 6.49 seconds (5.01 work units)

    Nodes    |    Current Node    |     Objective Bounds      |     Work
 Expl Unexpl |  Obj  Depth IntInf | Incumbent    BestBd   Gap | It/Node Time

*    0     0               0       1.0000000    1.00000  0.00%     -    9s

Explored 1 nodes (18011 simplex iterations) in 9.06 seconds (7.07 work units)
Thread count was 4 (of 4 available processors)

Solution count 3: 1 0.97 0.922 

Optimal solution found (tolerance 1.00e-04)
Best objective 1.000000000000e+00, best bound 1.000000000000e+00, gap 0.0000%
